(set-logic QF_BV)
(declare-fun _substvar_218_ () (_ BitVec 1))
(declare-fun _substvar_294_ () (_ BitVec 64))
(declare-fun _substvar_293_ () (_ BitVec 64))
(declare-fun _substvar_284_ () (_ BitVec 1))
(declare-fun _substvar_220_ () (_ BitVec 1))
(declare-fun _substvar_217_ () (_ BitVec 1))
(declare-fun _substvar_313_ () (_ BitVec 1))
(declare-fun _substvar_199_ () (_ BitVec 1))
(declare-fun _substvar_328_ () (_ BitVec 1))
(declare-fun _substvar_295_ () (_ BitVec 1))
(declare-fun _substvar_216_ () (_ BitVec 1))
(declare-fun _substvar_465_ () Bool)
(declare-fun _substvar_221_ () (_ BitVec 1))
(declare-fun _substvar_214_ () (_ BitVec 1))
(declare-fun _substvar_288_ () (_ BitVec 1))
(declare-fun _substvar_320_ () (_ BitVec 1))
(declare-fun _substvar_344_ () (_ BitVec 1))
(declare-fun _substvar_343_ () (_ BitVec 1))
(declare-fun _substvar_222_ () (_ BitVec 1))
(declare-fun _substvar_219_ () (_ BitVec 1))
(declare-fun _substvar_286_ () (_ BitVec 1))
(declare-fun _substvar_359_ () (_ BitVec 1))
(declare-fun _substvar_287_ () (_ BitVec 64))
(declare-fun _substvar_200_ () (_ BitVec 1))
(assert (= _substvar_287_ (bvadd (_ bv0 64) ((_ extract 63 0) (_ bv18446744073709551586 64)))))
(assert (= _substvar_294_ (bvmul _substvar_287_ _substvar_293_)))
(assert (= (= _substvar_200_ (_ bv1 1)) (bvsle (_ bv0 64) _substvar_294_)))
(assert (= _substvar_295_ _substvar_200_))
(assert (= true (bvsle _substvar_294_ _substvar_287_)))
(assert (= _substvar_218_ (bvand _substvar_295_ _substvar_217_)))
(assert (= _substvar_220_ (bvand _substvar_218_ _substvar_219_)))
(assert (= _substvar_222_ (bvand _substvar_220_ _substvar_221_)))
(assert (= _substvar_343_ (ite _substvar_465_ _substvar_222_ (_ bv0 1))))
(assert (= _substvar_344_ _substvar_343_))
(assert (= _substvar_313_ (bvand _substvar_216_ _substvar_344_)))
(assert (= _substvar_328_ (bvand _substvar_313_ _substvar_320_)))
(assert (= _substvar_286_ (bvand _substvar_328_ _substvar_284_)))
(assert (= _substvar_288_ (bvand _substvar_214_ _substvar_286_)))
(assert (= _substvar_359_ (bvand _substvar_199_ _substvar_288_)))
(assert (= false (=> (= _substvar_359_ (_ bv1 1)) false)))
(check-sat)
(exit)
